(declare-const c_0 Real)
(declare-const c_1 Real)
(declare-const c_2 Real)
(declare-const c_3 Real)
(declare-const c_4 Real)
(declare-const c_5 Real)
(declare-const c_6 Real)
(declare-const c_7 Real)
(declare-const c_8 Real)
(declare-const c_9 Real)
(declare-const c_10 Real)
(declare-const c_11 Real)
(declare-const c_12 Real)
(declare-const c_13 Real)
(declare-const c_14 Real)
(declare-const c_15 Real)
(declare-const c_16 Real)
(declare-const c_17 Real)
(declare-const c_18 Real)
(declare-const c_19 Real)
(declare-const c_20 Real)
(declare-const c_21 Real)
(declare-const c_22 Real)
(declare-const c_23 Real)
(declare-const c_24 Real)
(declare-const c_25 Real)
(declare-const c_26 Real)
(declare-const c_27 Real)
(declare-const c_28 Real)
(declare-const c_29 Real)
(declare-const c_30 Real)
(declare-const c_31 Real)
(declare-const c_32 Real)
(declare-const c_33 Real)
(declare-const c_34 Real)
(declare-const c_35 Real)
(declare-const c_36 Real)
(declare-const c_37 Real)
(declare-const c_38 Real)
(declare-const c_39 Real)
(declare-const c_40 Real)
(declare-const c_41 Real)
(declare-const c_42 Real)
(declare-const c_43 Real)
(declare-const c_44 Real)
(declare-const c_45 Real)
(declare-const c_46 Real)
(declare-const c_47 Real)
(declare-const c_48 Real)
(declare-const c_49 Real)
(declare-const c_50 Real)
(declare-const c_51 Real)
(declare-const c_52 Real)
(declare-const c_53 Real)
(declare-const c_54 Real)
(declare-const c_55 Real)
(declare-const c_56 Real)
(declare-const c_57 Real)
(declare-const c_58 Real)
(declare-const c_59 Real)
(declare-const c_60 Real)
(declare-const c_61 Real)
(declare-const c_62 Real)
(declare-const c_63 Real)
(declare-const c_64 Real)
(declare-const c_65 Real)
(declare-const c_66 Real)
(declare-const c_67 Real)
(declare-const c_68 Real)
(declare-const c_69 Real)
(declare-const c_70 Real)
(declare-const c_71 Real)
(declare-const c_72 Real)
(declare-const c_73 Real)
(declare-const c_74 Real)
(declare-const c_75 Real)
(declare-const c_76 Real)
(declare-const c_77 Real)
(declare-const c_78 Real)
(declare-const c_79 Real)
(declare-const c_80 Real)
(declare-const c_81 Real)
(declare-const c_82 Real)
(declare-const c_83 Real)
(declare-const c_84 Real)
(declare-const c_85 Real)
(declare-const c_86 Real)
(declare-const c_87 Real)
(declare-const c_88 Real)
(declare-const c_89 Real)
(declare-const c_90 Real)
(declare-const c_91 Real)
(declare-const c_92 Real)
(declare-const c_93 Real)
(declare-const c_94 Real)
(declare-const c_95 Real)
(declare-const c_96 Real)
(declare-const c_97 Real)
(declare-const c_98 Real)
(declare-const c_99 Real)
(declare-const c_100 Real)
(declare-const c_101 Real)
(declare-const c_102 Real)
(declare-const c_103 Real)
(declare-const c_104 Real)
(declare-const c_105 Real)
(declare-const c_106 Real)
(declare-const c_107 Real)
(declare-const c_108 Real)
(declare-const c_109 Real)
(declare-const c_110 Real)
(declare-const c_111 Real)
(declare-const c_112 Real)
(declare-const c_113 Real)
(declare-const c_114 Real)
(declare-const c_115 Real)
(declare-const c_116 Real)
(declare-const c_117 Real)
(declare-const c_118 Real)
(declare-const c_119 Real)
(declare-const c_120 Real)
(declare-const c_121 Real)
(declare-const c_122 Real)
(declare-const c_123 Real)
(declare-const c_124 Real)
(declare-const c_125 Real)
(declare-const c_126 Real)
(declare-const c_127 Real)
(declare-const c_128 Real)
(declare-const c_129 Real)
(declare-const c_130 Real)
(declare-const c_131 Real)
(declare-const c_132 Real)
(declare-const c_133 Real)
(declare-const c_134 Real)
(declare-const c_135 Real)
(declare-const c_136 Real)
(declare-const c_137 Real)
(declare-const c_138 Real)
(declare-const c_139 Real)
(declare-const c_140 Real)
(declare-const c_141 Real)
(declare-const c_142 Real)
(declare-const c_143 Real)
(declare-const c_144 Real)
(declare-const c_145 Real)
(declare-const c_146 Real)
(declare-const c_147 Real)
(declare-const c_148 Real)
(declare-const c_149 Real)
(declare-const c_150 Real)
(declare-const c_151 Real)
(declare-const c_152 Real)
(declare-const c_153 Real)
(declare-const c_154 Real)
(declare-const c_155 Real)
(declare-const c_156 Real)
(declare-const c_157 Real)
(declare-const c_158 Real)
(declare-const c_159 Real)
(declare-const c_160 Real)
(declare-const c_161 Real)
(declare-const c_162 Real)
(declare-const c_163 Real)
(declare-const c_164 Real)
(declare-const c_165 Real)
(declare-const c_166 Real)
(declare-const c_167 Real)
(declare-const c_168 Real)
(declare-const c_169 Real)
(declare-const c_170 Real)
(declare-const c_171 Real)
(declare-const c_172 Real)
(declare-const c_173 Real)
(declare-const c_174 Real)
(declare-const c_175 Real)
(declare-const c_176 Real)
(declare-const c_177 Real)
(declare-const c_178 Real)
(declare-const c_179 Real)
(assert (forall ((r Real) (cost Real) (y Real) (i Real) ) (=> (and (>= (+ (* 1 1) (* (- 1) r ) ) 0) (>= (+ (* 1 1) (* 1 r ) ) 0) (>= (+ (* 99 1) (* 1 i ) (* 101 r ) (* (- 1) y ) ) 0) (>= (+ (* 99 1) (* 1 i ) (* (- 99) r ) (* (- 1) y ) ) 0) (>= (+ (* 100 1) (* (- 1) y ) ) 0) (>= (+ (* (- 100) 1) (* 1 y ) ) 0) (>= (* (- 1) r ) 0) (>= (* 1 r ) 0) (>= (* (- 1) cost ) 0) (>= (* 1 cost ) 0) (>= (+ (* 1 1) (* (- 1) i ) ) 0) (>= (+ (* (- 1) 1) (* 1 i ) ) 0) ) (>= (+ (* 1 c_0 ) (* 1 c_1 cost ) (* 1 c_10 r ) (* 1 c_11 r y ) (* 1 c_12 r r ) (* 1 c_13 y ) (* 1 c_14 y y ) (* 1 c_2 cost i ) (* 1 c_3 cost r ) (* 1 c_4 cost y ) (* 1 c_5 cost cost ) (* 1 c_6 i ) (* 1 c_7 i r ) (* 1 c_8 i y ) (* 1 c_9 i i ) ) 0) )))
(assert (forall ((r Real) (cost Real) (y Real) (i Real) ) (=> (and (>= (+ (* (- 1) 1) (* 1 y ) ) 0) (>= (+ (* 1 1) (* (- 1) r ) ) 0) (>= (+ (* 1 1) (* 1 r ) ) 0) (>= (+ (* 99 1) (* 1 i ) (* 101 r ) (* (- 1) y ) ) 0) (>= (+ (* 99 1) (* 1 i ) (* (- 99) r ) (* (- 1) y ) ) 0) ) (>= (+ (* (- 1) 1) (* 1 c_0 ) (* 1 c_1 cost ) (* 1 c_10 r ) (* 1 c_11 r y ) (* 1 c_12 r r ) (* 1 c_13 y ) (* 1 c_14 y y ) (* (- 1) c_15 ) (* (- 1) c_16 cost ) (* (- 1) c_17 cost i ) (* (- 1) c_18 cost r ) (* (- 1) c_19 cost y ) (* 1 c_2 cost i ) (* (- 1) c_20 cost cost ) (* (- 1) c_21 i ) (* (- 1) c_22 i r ) (* (- 1) c_23 i y ) (* (- 1) c_24 i i ) (* (- 1) c_25 r ) (* (- 1) c_26 r y ) (* (- 1) c_27 r r ) (* (- 1) c_28 y ) (* (- 1) c_29 y y ) (* 1 c_3 cost r ) (* 1 c_4 cost y ) (* 1 c_5 cost cost ) (* 1 c_6 i ) (* 1 c_7 i r ) (* 1 c_8 i y ) (* 1 c_9 i i ) ) 0) )))
(assert (forall ((r Real) (cost Real) (y Real) (i Real) ) (=> (and (>= (+ (* (- 1) 1) (* 1 y ) ) 0) (>= (+ (* 1 1) (* (- 1) r ) ) 0) (>= (+ (* 1 1) (* 1 r ) ) 0) (>= (+ (* 99 1) (* 1 i ) (* 101 r ) (* (- 1) y ) ) 0) (>= (+ (* 99 1) (* 1 i ) (* (- 99) r ) (* (- 1) y ) ) 0) ) (>= (+ (* 1 c_15 ) (* 1 c_16 cost ) (* 1 c_17 cost i ) (* 1 c_18 cost r ) (* 1 c_19 cost y ) (* 1 c_20 cost cost ) (* 1 c_21 i ) (* 1 c_22 i r ) (* 1 c_23 i y ) (* 1 c_24 i i ) (* 1 c_25 r ) (* 1 c_26 r y ) (* 1 c_27 r r ) (* 1 c_28 y ) (* 1 c_29 y y ) ) 0) )))
(assert (forall ((r Real) (cost Real) (y Real) (i Real) ) (=> (and (>= (* (- 1) y ) 0) (>= (+ (* 1 1) (* (- 1) r ) ) 0) (>= (+ (* 1 1) (* 1 r ) ) 0) (>= (+ (* 99 1) (* 1 i ) (* 101 r ) (* (- 1) y ) ) 0) (>= (+ (* 99 1) (* 1 i ) (* (- 99) r ) (* (- 1) y ) ) 0) ) (>= (+ (* (- 1) 1) (* 1 c_0 ) (* 1 c_1 cost ) (* 1 c_10 r ) (* 1 c_11 r y ) (* 1 c_12 r r ) (* 1 c_13 y ) (* 1 c_14 y y ) (* 1 c_2 cost i ) (* 1 c_3 cost r ) (* (- 1) c_30 ) (* (- 1) c_31 cost ) (* (- 1) c_32 cost i ) (* (- 1) c_33 cost r ) (* (- 1) c_34 cost y ) (* (- 1) c_35 cost cost ) (* (- 1) c_36 i ) (* (- 1) c_37 i r ) (* (- 1) c_38 i y ) (* (- 1) c_39 i i ) (* 1 c_4 cost y ) (* (- 1) c_40 r ) (* (- 1) c_41 r y ) (* (- 1) c_42 r r ) (* (- 1) c_43 y ) (* (- 1) c_44 y y ) (* 1 c_5 cost cost ) (* 1 c_6 i ) (* 1 c_7 i r ) (* 1 c_8 i y ) (* 1 c_9 i i ) ) 0) )))
(assert (forall ((r Real) (cost Real) (y Real) (i Real) ) (=> (and (>= (* (- 1) y ) 0) (>= (+ (* 1 1) (* (- 1) r ) ) 0) (>= (+ (* 1 1) (* 1 r ) ) 0) (>= (+ (* 99 1) (* 1 i ) (* 101 r ) (* (- 1) y ) ) 0) (>= (+ (* 99 1) (* 1 i ) (* (- 99) r ) (* (- 1) y ) ) 0) ) (>= (+ (* 1 c_30 ) (* 1 c_31 cost ) (* 1 c_32 cost i ) (* 1 c_33 cost r ) (* 1 c_34 cost y ) (* 1 c_35 cost cost ) (* 1 c_36 i ) (* 1 c_37 i r ) (* 1 c_38 i y ) (* 1 c_39 i i ) (* 1 c_40 r ) (* 1 c_41 r y ) (* 1 c_42 r r ) (* 1 c_43 y ) (* 1 c_44 y y ) ) 0) )))
(assert (forall ((r Real) (cost Real) (y Real) (i Real) ) (=> (and (>= (+ (* 99 1) (* 1 i ) (* (- 99) r ) (* (- 1) y ) ) 0) (>= (+ (* (- 1) 1) (* 1 y ) ) 0) (>= (+ (* 1 1) (* (- 1) r ) ) 0) (>= (+ (* 99 1) (* 1 i ) (* 101 r ) (* (- 1) y ) ) 0) (>= (+ (* 1 1) (* 1 r ) ) 0) ) (>= (+ (* (- 1) 1) (* 1 c_15 ) (* 1 c_16 cost ) (* 1 c_17 cost i ) (* 1 c_18 cost r ) (* 1 c_19 cost y ) (* 1 c_20 cost cost ) (* 1 c_21 i ) (* 1 c_22 i r ) (* 1 c_23 i y ) (* 1 c_24 i i ) (* 1 c_25 r ) (* 1 c_26 r y ) (* 1 c_27 r r ) (* 1 c_28 y ) (* 1 c_29 y y ) (* (- 1) c_45 ) (* (- 1) c_46 ) (* (- 1) c_46 cost ) (* (- 1) c_47 ) (* (- 1) c_47 cost ) (* (- 1) c_48 cost r ) (* (- 1) c_48 r ) (* (- 1) c_49 cost y ) (* (- 1) c_49 y ) (* (- 1) c_50 ) (* (- 2) c_50 cost ) (* (- 1) c_50 cost cost ) (* (- 1) c_51 ) (* (- 1) c_52 r ) (* (- 1) c_53 y ) (* (- 1) c_54 ) (* (- 1) c_55 r ) (* (- 1) c_56 r y ) (* (- 1) c_57 r r ) (* (- 1) c_58 y ) (* (- 1) c_59 y y ) ) 0) )))
(assert (forall ((r Real) (cost Real) (y Real) (i Real) ) (=> (and (>= (+ (* 99 1) (* 1 i ) (* (- 99) r ) (* (- 1) y ) ) 0) (>= (+ (* (- 1) 1) (* 1 y ) ) 0) (>= (+ (* 1 1) (* (- 1) r ) ) 0) (>= (+ (* 99 1) (* 1 i ) (* 101 r ) (* (- 1) y ) ) 0) (>= (+ (* 1 1) (* 1 r ) ) 0) ) (>= (+ (* 1 c_45 ) (* 1 c_46 cost ) (* 1 c_47 cost i ) (* 1 c_48 cost r ) (* 1 c_49 cost y ) (* 1 c_50 cost cost ) (* 1 c_51 i ) (* 1 c_52 i r ) (* 1 c_53 i y ) (* 1 c_54 i i ) (* 1 c_55 r ) (* 1 c_56 r y ) (* 1 c_57 r r ) (* 1 c_58 y ) (* 1 c_59 y y ) ) 0) )))
(assert (forall ((r Real) (cost Real) (y Real) (i Real) ) (=> (and (>= (+ (* (- 1) i ) (* 1 y ) ) 0) (>= (+ (* (- 1) 1) (* 1 y ) ) 0) (>= (+ (* 1 1) (* 1 r ) ) 0) (>= (+ (* 1 1) (* (- 1) r ) ) 0) ) (>= (+ (* (- 1) 1) (* 1 c_45 ) (* 1 c_46 cost ) (* 1 c_47 cost i ) (* 1 c_48 cost r ) (* 1 c_49 cost y ) (* 1 c_50 cost cost ) (* 1 c_51 i ) (* 1 c_52 i r ) (* 1 c_53 i y ) (* 1 c_54 i i ) (* 1 c_55 r ) (* 1 c_56 r y ) (* 1 c_57 r r ) (* 1 c_58 y ) (* 1 c_59 y y ) (* (- 1) c_60 ) (* (- 1) c_61 cost ) (* (- 1) c_62 cost i ) (* (- 1) c_63 cost r ) (* (- 1) c_64 cost y ) (* (- 1) c_65 cost cost ) (* (- 1) c_66 i ) (* (- 1) c_67 i r ) (* (- 1) c_68 i y ) (* (- 1) c_69 i i ) (* (- 1) c_70 r ) (* (- 1) c_71 r y ) (* (- 1) c_72 r r ) (* (- 1) c_73 y ) (* (- 1) c_74 y y ) ) 0) )))
(assert (forall ((r Real) (cost Real) (y Real) (i Real) ) (=> (and (>= (+ (* (- 1) i ) (* 1 y ) ) 0) (>= (+ (* (- 1) 1) (* 1 y ) ) 0) (>= (+ (* 1 1) (* 1 r ) ) 0) (>= (+ (* 1 1) (* (- 1) r ) ) 0) ) (>= (+ (* 1 c_60 ) (* 1 c_61 cost ) (* 1 c_62 cost i ) (* 1 c_63 cost r ) (* 1 c_64 cost y ) (* 1 c_65 cost cost ) (* 1 c_66 i ) (* 1 c_67 i r ) (* 1 c_68 i y ) (* 1 c_69 i i ) (* 1 c_70 r ) (* 1 c_71 r y ) (* 1 c_72 r r ) (* 1 c_73 y ) (* 1 c_74 y y ) ) 0) )))
(assert (forall ((r Real) (cost Real) (y Real) (i Real) ) (=> (and (>= (+ (* (- 1) 1) (* 1 i ) (* (- 1) y ) ) 0) (>= (+ (* (- 1) 1) (* 1 y ) ) 0) (>= (+ (* 1 1) (* 1 r ) ) 0) (>= (+ (* 1 1) (* (- 1) r ) ) 0) ) (>= (+ (* (- 1) 1) (* 1 c_45 ) (* 1 c_46 cost ) (* 1 c_47 cost i ) (* 1 c_48 cost r ) (* 1 c_49 cost y ) (* 1 c_50 cost cost ) (* 1 c_51 i ) (* 1 c_52 i r ) (* 1 c_53 i y ) (* 1 c_54 i i ) (* 1 c_55 r ) (* 1 c_56 r y ) (* 1 c_57 r r ) (* 1 c_58 y ) (* 1 c_59 y y ) (* (- 1) c_75 ) (* (- 1) c_76 cost ) (* (- 1) c_77 cost i ) (* (- 1) c_78 cost r ) (* (- 1) c_79 cost y ) (* (- 1) c_80 cost cost ) (* (- 1) c_81 i ) (* (- 1) c_82 i r ) (* (- 1) c_83 i y ) (* (- 1) c_84 i i ) (* (- 1) c_85 r ) (* (- 1) c_86 r y ) (* (- 1) c_87 r r ) (* (- 1) c_88 y ) (* (- 1) c_89 y y ) ) 0) )))
(assert (forall ((r Real) (cost Real) (y Real) (i Real) ) (=> (and (>= (+ (* (- 1) 1) (* 1 i ) (* (- 1) y ) ) 0) (>= (+ (* (- 1) 1) (* 1 y ) ) 0) (>= (+ (* 1 1) (* 1 r ) ) 0) (>= (+ (* 1 1) (* (- 1) r ) ) 0) ) (>= (+ (* 1 c_75 ) (* 1 c_76 cost ) (* 1 c_77 cost i ) (* 1 c_78 cost r ) (* 1 c_79 cost y ) (* 1 c_80 cost cost ) (* 1 c_81 i ) (* 1 c_82 i r ) (* 1 c_83 i y ) (* 1 c_84 i i ) (* 1 c_85 r ) (* 1 c_86 r y ) (* 1 c_87 r r ) (* 1 c_88 y ) (* 1 c_89 y y ) ) 0) )))
(assert (forall ((r Real) (cost Real) (y Real) (i Real) ) (=> (and (>= (+ (* 1 1) (* (- 1) r ) ) 0) (>= (+ (* (- 1) 1) (* 1 y ) ) 0) (>= (+ (* 1 1) (* 1 r ) ) 0) (>= (+ (* (- 1) i ) (* 1 y ) ) 0) ) (>= (+ (* (/ (- 1) 200) c_100 r ) (* (/ (- 1) 200) c_101 r y ) (* (/ (- 1) 200) c_102 r r ) (* (/ (- 1) 200) c_103 y ) (* (/ (- 1) 200) c_104 y y ) (* (/ (- 199) 200) c_105 ) (* (/ (- 199) 200) c_106 cost ) (* (/ (- 199) 200) c_107 cost i ) (* (/ (- 199) 200) c_108 cost r ) (* (/ (- 199) 200) c_109 cost y ) (* (/ (- 199) 200) c_110 cost cost ) (* (/ (- 199) 200) c_111 i ) (* (/ (- 199) 200) c_112 i r ) (* (/ (- 199) 200) c_113 i y ) (* (/ (- 199) 200) c_114 i i ) (* (/ (- 199) 200) c_115 r ) (* (/ (- 199) 200) c_116 r y ) (* (/ (- 199) 200) c_117 r r ) (* (/ (- 199) 200) c_118 y ) (* (/ (- 199) 200) c_119 y y ) (* 1 c_60 ) (* 1 c_61 cost ) (* 1 c_62 cost i ) (* 1 c_63 cost r ) (* 1 c_64 cost y ) (* 1 c_65 cost cost ) (* 1 c_66 i ) (* 1 c_67 i r ) (* 1 c_68 i y ) (* 1 c_69 i i ) (* 1 c_70 r ) (* 1 c_71 r y ) (* 1 c_72 r r ) (* 1 c_73 y ) (* 1 c_74 y y ) (* (/ (- 1) 200) c_90 ) (* (/ (- 1) 200) c_91 cost ) (* (/ (- 1) 200) c_92 cost i ) (* (/ (- 1) 200) c_93 cost r ) (* (/ (- 1) 200) c_94 cost y ) (* (/ (- 1) 200) c_95 cost cost ) (* (/ (- 1) 200) c_96 i ) (* (/ (- 1) 200) c_97 i r ) (* (/ (- 1) 200) c_98 i y ) (* (/ (- 1) 200) c_99 i i ) ) 0) )))
(assert (forall ((r Real) (cost Real) (y Real) (i Real) ) (=> (and (>= (+ (* 1 1) (* (- 1) r ) ) 0) (>= (+ (* (- 1) 1) (* 1 y ) ) 0) (>= (+ (* 1 1) (* 1 r ) ) 0) (>= (+ (* (- 1) i ) (* 1 y ) ) 0) ) (>= (+ (* (/ 1 200) c_100 r ) (* (/ 1 200) c_101 r y ) (* (/ 1 200) c_102 r r ) (* (/ 1 200) c_103 y ) (* (/ 1 200) c_104 y y ) (* (/ 199 200) c_105 ) (* (/ 199 200) c_106 cost ) (* (/ 199 200) c_107 cost i ) (* (/ 199 200) c_108 cost r ) (* (/ 199 200) c_109 cost y ) (* (/ 199 200) c_110 cost cost ) (* (/ 199 200) c_111 i ) (* (/ 199 200) c_112 i r ) (* (/ 199 200) c_113 i y ) (* (/ 199 200) c_114 i i ) (* (/ 199 200) c_115 r ) (* (/ 199 200) c_116 r y ) (* (/ 199 200) c_117 r r ) (* (/ 199 200) c_118 y ) (* (/ 199 200) c_119 y y ) (* (/ 1 200) c_90 ) (* (/ 1 200) c_91 cost ) (* (/ 1 200) c_92 cost i ) (* (/ 1 200) c_93 cost r ) (* (/ 1 200) c_94 cost y ) (* (/ 1 200) c_95 cost cost ) (* (/ 1 200) c_96 i ) (* (/ 1 200) c_97 i r ) (* (/ 1 200) c_98 i y ) (* (/ 1 200) c_99 i i ) ) 0) )))
(assert (forall ((r Real) (cost Real) (y Real) (i Real) ) (=> (and (>= (+ (* 1 1) (* (- 1) r ) ) 0) (>= (+ (* (- 1) 1) (* 1 y ) ) 0) (>= (+ (* 1 1) (* 1 r ) ) 0) (>= (+ (* (- 1) 1) (* 1 i ) (* (- 1) y ) ) 0) ) (>= (+ (* (- 1) 1) (* (- 1) c_165 ) (* (- 1) c_166 cost ) (* (- 1) c_167 cost i ) (* (/ 1 10) c_168 cost ) (* (- 1) c_169 cost y ) (* (- 1) c_170 cost cost ) (* (- 1) c_171 i ) (* (/ 1 10) c_172 i ) (* (- 1) c_173 i y ) (* (- 1) c_174 i i ) (* (/ 1 10) c_175 ) (* (/ 1 10) c_176 y ) (* (/ (- 9) 10) c_177 ) (* (- 1) c_178 y ) (* (- 1) c_179 y y ) (* 1 c_75 ) (* 1 c_76 cost ) (* 1 c_77 cost i ) (* 1 c_78 cost r ) (* 1 c_79 cost y ) (* 1 c_80 cost cost ) (* 1 c_81 i ) (* 1 c_82 i r ) (* 1 c_83 i y ) (* 1 c_84 i i ) (* 1 c_85 r ) (* 1 c_86 r y ) (* 1 c_87 r r ) (* 1 c_88 y ) (* 1 c_89 y y ) ) 0) )))
(assert (forall ((r Real) (cost Real) (y Real) (i Real) ) (=> (and (>= (+ (* 1 1) (* (- 1) r ) ) 0) (>= (+ (* (- 1) 1) (* 1 y ) ) 0) (>= (+ (* 1 1) (* 1 r ) ) 0) (>= (+ (* (- 1) 1) (* 1 i ) (* (- 1) y ) ) 0) ) (>= (+ (* 1 c_165 ) (* 1 c_166 cost ) (* 1 c_167 cost i ) (* (/ (- 1) 10) c_168 cost ) (* 1 c_169 cost y ) (* 1 c_170 cost cost ) (* 1 c_171 i ) (* (/ (- 1) 10) c_172 i ) (* 1 c_173 i y ) (* 1 c_174 i i ) (* (/ (- 1) 10) c_175 ) (* (/ (- 1) 10) c_176 y ) (* (/ 9 10) c_177 ) (* 1 c_178 y ) (* 1 c_179 y y ) ) 0) )))
(assert (forall ((r Real) (cost Real) (y Real) (i Real) ) (=> (and (>= (+ (* 1 1) (* (- 1) r ) ) 0) (>= (+ (* (- 1) 1) (* 1 y ) ) 0) (>= (+ (* 1 1) (* 1 r ) ) 0) (>= (+ (* (- 1) i ) (* 1 y ) ) 0) ) (>= (+ (* 1 c_100 r ) (* 1 c_101 r y ) (* 1 c_102 r r ) (* 1 c_103 y ) (* 1 c_104 y y ) (* (/ (- 99) 100) c_120 ) (* (/ (- 99) 100) c_121 cost ) (* (/ (- 99) 100) c_122 cost i ) (* (/ (- 99) 100) c_123 cost r ) (* (/ (- 99) 100) c_124 cost y ) (* (/ (- 99) 100) c_125 cost cost ) (* (/ (- 99) 100) c_126 i ) (* (/ (- 99) 100) c_127 i r ) (* (/ (- 99) 100) c_128 i y ) (* (/ (- 99) 100) c_129 i i ) (* (/ (- 99) 100) c_130 r ) (* (/ (- 99) 100) c_131 r y ) (* (/ (- 99) 100) c_132 r r ) (* (/ (- 99) 100) c_133 y ) (* (/ (- 99) 100) c_134 y y ) (* (/ (- 1) 100) c_135 ) (* (/ (- 1) 100) c_136 cost ) (* (/ (- 1) 100) c_137 cost i ) (* (/ (- 1) 100) c_138 cost r ) (* (/ (- 1) 100) c_139 cost y ) (* (/ (- 1) 100) c_140 cost cost ) (* (/ (- 1) 100) c_141 i ) (* (/ (- 1) 100) c_142 i r ) (* (/ (- 1) 100) c_143 i y ) (* (/ (- 1) 100) c_144 i i ) (* (/ (- 1) 100) c_145 r ) (* (/ (- 1) 100) c_146 r y ) (* (/ (- 1) 100) c_147 r r ) (* (/ (- 1) 100) c_148 y ) (* (/ (- 1) 100) c_149 y y ) (* 1 c_90 ) (* 1 c_91 cost ) (* 1 c_92 cost i ) (* 1 c_93 cost r ) (* 1 c_94 cost y ) (* 1 c_95 cost cost ) (* 1 c_96 i ) (* 1 c_97 i r ) (* 1 c_98 i y ) (* 1 c_99 i i ) ) 0) )))
(assert (forall ((r Real) (cost Real) (y Real) (i Real) ) (=> (and (>= (+ (* 1 1) (* (- 1) r ) ) 0) (>= (+ (* (- 1) 1) (* 1 y ) ) 0) (>= (+ (* 1 1) (* 1 r ) ) 0) (>= (+ (* (- 1) i ) (* 1 y ) ) 0) ) (>= (+ (* (/ 99 100) c_120 ) (* (/ 99 100) c_121 cost ) (* (/ 99 100) c_122 cost i ) (* (/ 99 100) c_123 cost r ) (* (/ 99 100) c_124 cost y ) (* (/ 99 100) c_125 cost cost ) (* (/ 99 100) c_126 i ) (* (/ 99 100) c_127 i r ) (* (/ 99 100) c_128 i y ) (* (/ 99 100) c_129 i i ) (* (/ 99 100) c_130 r ) (* (/ 99 100) c_131 r y ) (* (/ 99 100) c_132 r r ) (* (/ 99 100) c_133 y ) (* (/ 99 100) c_134 y y ) (* (/ 1 100) c_135 ) (* (/ 1 100) c_136 cost ) (* (/ 1 100) c_137 cost i ) (* (/ 1 100) c_138 cost r ) (* (/ 1 100) c_139 cost y ) (* (/ 1 100) c_140 cost cost ) (* (/ 1 100) c_141 i ) (* (/ 1 100) c_142 i r ) (* (/ 1 100) c_143 i y ) (* (/ 1 100) c_144 i i ) (* (/ 1 100) c_145 r ) (* (/ 1 100) c_146 r y ) (* (/ 1 100) c_147 r r ) (* (/ 1 100) c_148 y ) (* (/ 1 100) c_149 y y ) ) 0) )))
(assert (forall ((r Real) (cost Real) (y Real) (i Real) ) (=> (and (>= (+ (* 1 1) (* (- 1) r ) ) 0) (>= (+ (* (- 1) 1) (* 1 y ) ) 0) (>= (+ (* 1 1) (* 1 r ) ) 0) (>= (+ (* (- 1) i ) (* 1 y ) ) 0) ) (>= (+ (* (- 1) 1) (* 1 c_105 ) (* 1 c_106 cost ) (* 1 c_107 cost i ) (* 1 c_108 cost r ) (* 1 c_109 cost y ) (* 1 c_110 cost cost ) (* 1 c_111 i ) (* 1 c_112 i r ) (* 1 c_113 i y ) (* 1 c_114 i i ) (* 1 c_115 r ) (* 1 c_116 r y ) (* 1 c_117 r r ) (* 1 c_118 y ) (* 1 c_119 y y ) (* (- 1) c_150 ) (* (- 1) c_151 cost ) (* (- 1) c_152 cost i ) (* (- 1) c_153 cost r ) (* (- 1) c_154 cost y ) (* (- 1) c_155 cost cost ) (* (- 1) c_156 i ) (* (- 1) c_157 i r ) (* (- 1) c_158 i y ) (* (- 1) c_159 i i ) (* (- 1) c_160 r ) (* (- 1) c_161 r y ) (* (- 1) c_162 r r ) (* (- 1) c_163 y ) (* (- 1) c_164 y y ) ) 0) )))
(assert (forall ((r Real) (cost Real) (y Real) (i Real) ) (=> (and (>= (+ (* 1 1) (* (- 1) r ) ) 0) (>= (+ (* (- 1) 1) (* 1 y ) ) 0) (>= (+ (* 1 1) (* 1 r ) ) 0) (>= (+ (* (- 1) i ) (* 1 y ) ) 0) ) (>= (+ (* 1 c_150 ) (* 1 c_151 cost ) (* 1 c_152 cost i ) (* 1 c_153 cost r ) (* 1 c_154 cost y ) (* 1 c_155 cost cost ) (* 1 c_156 i ) (* 1 c_157 i r ) (* 1 c_158 i y ) (* 1 c_159 i i ) (* 1 c_160 r ) (* 1 c_161 r y ) (* 1 c_162 r r ) (* 1 c_163 y ) (* 1 c_164 y y ) ) 0) )))
(assert (forall ((r Real) (cost Real) (y Real) (i Real) ) (=> (and (>= (+ (* 1 1) (* (- 1) r ) ) 0) (>= (+ (* (- 1) 1) (* 1 y ) ) 0) (>= (+ (* 1 1) (* 1 r ) ) 0) (>= (+ (* (- 1) i ) (* 1 y ) ) 0) ) (>= (+ (* (- 1) 1) (* 1 c_120 ) (* 1 c_121 cost ) (* 1 c_122 cost i ) (* 1 c_123 cost r ) (* 1 c_124 cost y ) (* 1 c_125 cost cost ) (* 1 c_126 i ) (* 1 c_127 i r ) (* 1 c_128 i y ) (* 1 c_129 i i ) (* 1 c_130 r ) (* 1 c_131 r y ) (* 1 c_132 r r ) (* 1 c_133 y ) (* 1 c_134 y y ) (* (- 1) c_150 ) (* 50 c_151 ) (* (- 1) c_151 cost ) (* (- 1) c_152 cost i ) (* 50 c_152 i ) (* (- 1) c_153 cost r ) (* 50 c_153 r ) (* (- 1) c_154 cost y ) (* 50 c_154 y ) (* (- 2500) c_155 ) (* 100 c_155 cost ) (* (- 1) c_155 cost cost ) (* (- 1) c_156 i ) (* (- 1) c_157 i r ) (* (- 1) c_158 i y ) (* (- 1) c_159 i i ) (* (- 1) c_160 r ) (* (- 1) c_161 r y ) (* (- 1) c_162 r r ) (* (- 1) c_163 y ) (* (- 1) c_164 y y ) ) 0) )))
(assert (forall ((r Real) (cost Real) (y Real) (i Real) ) (=> (and (>= (+ (* 1 1) (* (- 1) r ) ) 0) (>= (+ (* (- 1) 1) (* 1 y ) ) 0) (>= (+ (* 1 1) (* 1 r ) ) 0) (>= (+ (* (- 1) i ) (* 1 y ) ) 0) ) (>= (+ (* 1 c_150 ) (* 1 c_151 cost ) (* 1 c_152 cost i ) (* 1 c_153 cost r ) (* 1 c_154 cost y ) (* 1 c_155 cost cost ) (* 1 c_156 i ) (* 1 c_157 i r ) (* 1 c_158 i y ) (* 1 c_159 i i ) (* 1 c_160 r ) (* 1 c_161 r y ) (* 1 c_162 r r ) (* 1 c_163 y ) (* 1 c_164 y y ) ) 0) )))
(assert (forall ((r Real) (cost Real) (y Real) (i Real) ) (=> (and (>= (+ (* 1 1) (* (- 1) r ) ) 0) (>= (+ (* (- 1) 1) (* 1 y ) ) 0) (>= (+ (* 1 1) (* 1 r ) ) 0) (>= (+ (* (- 1) i ) (* 1 y ) ) 0) ) (>= (+ (* (- 1) 1) (* 1 c_135 ) (* 1 c_136 cost ) (* 1 c_137 cost i ) (* 1 c_138 cost r ) (* 1 c_139 cost y ) (* 1 c_140 cost cost ) (* 1 c_141 i ) (* 1 c_142 i r ) (* 1 c_143 i y ) (* 1 c_144 i i ) (* 1 c_145 r ) (* 1 c_146 r y ) (* 1 c_147 r r ) (* 1 c_148 y ) (* 1 c_149 y y ) (* (- 1) c_150 ) (* (- 1) c_151 cost ) (* (- 1) c_152 cost i ) (* (- 1) c_153 cost r ) (* (- 1) c_154 cost y ) (* (- 1) c_155 cost cost ) (* (- 1) c_156 i ) (* (- 1) c_157 i r ) (* (- 1) c_158 i y ) (* (- 1) c_159 i i ) (* (- 1) c_160 r ) (* (- 1) c_161 r y ) (* (- 1) c_162 r r ) (* (- 1) c_163 y ) (* (- 1) c_164 y y ) ) 0) )))
(assert (forall ((r Real) (cost Real) (y Real) (i Real) ) (=> (and (>= (+ (* 1 1) (* (- 1) r ) ) 0) (>= (+ (* (- 1) 1) (* 1 y ) ) 0) (>= (+ (* 1 1) (* 1 r ) ) 0) (>= (+ (* (- 1) i ) (* 1 y ) ) 0) ) (>= (+ (* 1 c_150 ) (* 1 c_151 cost ) (* 1 c_152 cost i ) (* 1 c_153 cost r ) (* 1 c_154 cost y ) (* 1 c_155 cost cost ) (* 1 c_156 i ) (* 1 c_157 i r ) (* 1 c_158 i y ) (* 1 c_159 i i ) (* 1 c_160 r ) (* 1 c_161 r y ) (* 1 c_162 r r ) (* 1 c_163 y ) (* 1 c_164 y y ) ) 0) )))
(assert (forall ((r Real) (cost Real) (y Real) (i Real) ) (=> (and (>= (+ (* 1 1) (* (- 1) r ) ) 0) (>= (+ (* (- 1) 1) (* 1 y ) ) 0) (>= (+ (* 1 1) (* 1 r ) ) 0) (>= (+ (* (- 1) i ) (* 1 y ) ) 0) ) (>= (+ (* (- 1) 1) (* 1 c_150 ) (* 1 c_151 cost ) (* 1 c_152 cost i ) (* 1 c_153 cost r ) (* 1 c_154 cost y ) (* 1 c_155 cost cost ) (* 1 c_156 i ) (* 1 c_157 i r ) (* 1 c_158 i y ) (* 1 c_159 i i ) (* 1 c_160 r ) (* 1 c_161 r y ) (* 1 c_162 r r ) (* 1 c_163 y ) (* 1 c_164 y y ) (* (- 1) c_45 ) (* (- 1) c_46 cost ) (* (- 1) c_47 cost ) (* (- 1) c_47 cost i ) (* (- 1) c_48 cost r ) (* (- 1) c_49 cost y ) (* (- 1) c_50 cost cost ) (* (- 1) c_51 ) (* (- 1) c_51 i ) (* (- 1) c_52 i r ) (* (- 1) c_52 r ) (* (- 1) c_53 i y ) (* (- 1) c_53 y ) (* (- 1) c_54 ) (* (- 2) c_54 i ) (* (- 1) c_54 i i ) (* (- 1) c_55 r ) (* (- 1) c_56 r y ) (* (- 1) c_57 r r ) (* (- 1) c_58 y ) (* (- 1) c_59 y y ) ) 0) )))
(assert (forall ((r Real) (cost Real) (y Real) (i Real) ) (=> (and (>= (+ (* 1 1) (* (- 1) r ) ) 0) (>= (+ (* (- 1) 1) (* 1 y ) ) 0) (>= (+ (* 1 1) (* 1 r ) ) 0) (>= (+ (* (- 1) i ) (* 1 y ) ) 0) ) (>= (+ (* 1 c_45 ) (* 1 c_46 cost ) (* 1 c_47 cost i ) (* 1 c_48 cost r ) (* 1 c_49 cost y ) (* 1 c_50 cost cost ) (* 1 c_51 i ) (* 1 c_52 i r ) (* 1 c_53 i y ) (* 1 c_54 i i ) (* 1 c_55 r ) (* 1 c_56 r y ) (* 1 c_57 r r ) (* 1 c_58 y ) (* 1 c_59 y y ) ) 0) )))
(assert (forall ((r Real) (cost Real) (y Real) (i Real) ) (=> (and (>= (+ (* 1 1) (* 1 r ) ) 0) (>= (+ (* (- 1) 1) (* 1 y ) ) 0) (>= (+ (* 1 1) (* (- 1) r ) ) 0) (>= (+ (* (- 1) 1) (* 1 i ) (* (- 1) y ) ) 0) ) (>= (+ (* (- 1) 1) (* (- 1) c_0 ) (* (- 1) c_1 cost ) (* (- 1) c_10 r ) (* (- 1) c_11 r y ) (* (- 1) c_11 r r ) (* (- 1) c_12 r r ) (* (- 1) c_13 r ) (* (- 1) c_13 y ) (* (- 2) c_14 r y ) (* (- 1) c_14 r r ) (* (- 1) c_14 y y ) (* 1 c_165 ) (* 1 c_166 cost ) (* 1 c_167 cost i ) (* 1 c_168 cost r ) (* 1 c_169 cost y ) (* 1 c_170 cost cost ) (* 1 c_171 i ) (* 1 c_172 i r ) (* 1 c_173 i y ) (* 1 c_174 i i ) (* 1 c_175 r ) (* 1 c_176 r y ) (* 1 c_177 r r ) (* 1 c_178 y ) (* 1 c_179 y y ) (* (- 1) c_2 cost i ) (* (- 1) c_3 cost r ) (* (- 1) c_4 cost r ) (* (- 1) c_4 cost y ) (* (- 1) c_5 cost cost ) (* (- 1) c_6 i ) (* (- 1) c_7 i r ) (* (- 1) c_8 i r ) (* (- 1) c_8 i y ) (* (- 1) c_9 i i ) ) 0) )))
(assert (forall ((r Real) (cost Real) (y Real) (i Real) ) (=> (and (>= (+ (* 1 1) (* 1 r ) ) 0) (>= (+ (* (- 1) 1) (* 1 y ) ) 0) (>= (+ (* 1 1) (* (- 1) r ) ) 0) (>= (+ (* (- 1) 1) (* 1 i ) (* (- 1) y ) ) 0) ) (>= (+ (* 1 c_0 ) (* 1 c_1 cost ) (* 1 c_10 r ) (* 1 c_11 r y ) (* 1 c_12 r r ) (* 1 c_13 y ) (* 1 c_14 y y ) (* 1 c_2 cost i ) (* 1 c_3 cost r ) (* 1 c_4 cost y ) (* 1 c_5 cost cost ) (* 1 c_6 i ) (* 1 c_7 i r ) (* 1 c_8 i y ) (* 1 c_9 i i ) ) 0) )))
(check-sat)
(get-model)

